presolving:
(round 1, fast)       1599 del vars, 1065 del conss, 0 add conss, 1899 chg bounds, 464 chg sides, 0 chg coeffs, 0 upgd conss, 0 impls, 890 clqs
(round 2, fast)       1899 del vars, 1065 del conss, 0 add conss, 1899 chg bounds, 464 chg sides, 0 chg coeffs, 0 upgd conss, 0 impls, 890 clqs
   (0.3s) running MILP presolver
   (0.4s) MILP presolver found nothing
(round 3, exhaustive) 1899 del vars, 1065 del conss, 0 add conss, 1899 chg bounds, 464 chg sides, 0 chg coeffs, 359 upgd conss, 0 impls, 890 clqs
(round 4, fast)       1899 del vars, 1069 del conss, 4 add conss, 1899 chg bounds, 464 chg sides, 611 chg coeffs, 359 upgd conss, 0 impls, 890 clqs
(round 5, fast)       1899 del vars, 1069 del conss, 4 add conss, 1899 chg bounds, 465 chg sides, 849 chg coeffs, 359 upgd conss, 0 impls, 890 clqs
   (0.8s) probing: 51/16865 (0.3%) - 0 fixings, 0 aggregations, 0 implications, 0 bound changes
   (0.8s) probing aborted: 50/50 successive totally useless probings
   (0.8s) symmetry computation started: requiring (bin +, int -, cont +), (fixed: bin -, int +, cont -)
   (0.8s) no symmetry present
presolving (6 rounds: 6 fast, 2 medium, 2 exhaustive):
 1899 deleted vars, 1069 deleted constraints, 4 added constraints, 1899 tightened bounds, 0 added holes, 465 changed sides, 849 changed coefficients
 0 implications, 890 cliques
presolved problem has 16865 variables (16865 bin, 0 int, 0 impl, 0 cont) and 359 constraints
     55 constraints of type <knapsack>
    304 constraints of type <setppc>
Presolving Time: 0.74

 time | node  | left  |LP iter|LP it/n|mem/heur|mdpt |vars |cons |rows |cuts |sepa|confs|strbr|  dualbound   | primalbound  |  gap   | compl. 
p 1.1s|     1 |     0 |     0 |     - |  clique|   0 |  16k| 359 | 359 |   0 |  0 |   0 |   0 | 4.669901e+03 | 1.855931e+06 |  Large | unknown
  1.6s|     1 |     0 |  1058 |     - |   168M |   0 |  16k| 361 | 359 |   0 |  0 |   2 |   0 | 9.669170e+05 | 1.855931e+06 |  91.94%| unknown
  2.6s|     1 |     0 |  1265 |     - |   173M |   0 |  16k| 361 | 394 |  35 |  1 |   2 |   0 | 9.770830e+05 | 1.855931e+06 |  89.95%| unknown
  2.9s|     1 |     0 |  1383 |     - |   176M |   0 |  16k| 361 | 428 |  69 |  2 |   2 |   0 | 9.795549e+05 | 1.855931e+06 |  89.47%| unknown
  3.4s|     1 |     0 |  1499 |     - |   179M |   0 |  16k| 361 | 459 | 100 |  3 |   2 |   0 | 9.814754e+05 | 1.855931e+06 |  89.10%| unknown
  3.7s|     1 |     0 |  1653 |     - |   184M |   0 |  16k| 361 | 485 | 126 |  4 |   2 |   0 | 9.833626e+05 | 1.855931e+06 |  88.73%| unknown
  3.9s|     1 |     0 |  1821 |     - |   185M |   0 |  16k| 361 | 510 | 151 |  5 |   2 |   0 | 9.849263e+05 | 1.855931e+06 |  88.43%| unknown
  4.5s|     1 |     0 |  1929 |     - |   187M |   0 |  16k| 361 | 535 | 176 |  6 |   2 |   0 | 9.857180e+05 | 1.855931e+06 |  88.28%| unknown
  4.9s|     1 |     0 |  2040 |     - |   187M |   0 |  16k| 361 | 551 | 192 |  7 |   2 |   0 | 9.864160e+05 | 1.855931e+06 |  88.15%| unknown
  5.3s|     1 |     0 |  2131 |     - |   191M |   0 |  16k| 361 | 571 | 212 |  8 |   2 |   0 | 9.867183e+05 | 1.855931e+06 |  88.09%| unknown
  5.5s|     1 |     0 |  2245 |     - |   192M |   0 |  16k| 361 | 594 | 235 |  9 |   2 |   0 | 9.872799e+05 | 1.855931e+06 |  87.98%| unknown
  5.8s|     1 |     0 |  2367 |     - |   193M |   0 |  16k| 361 | 611 | 252 | 10 |   2 |   0 | 9.875645e+05 | 1.855931e+06 |  87.93%| unknown
  6.0s|     1 |     0 |  2457 |     - |   195M |   0 |  16k| 361 | 625 | 266 | 11 |   2 |   0 | 9.878134e+05 | 1.855931e+06 |  87.88%| unknown
  6.3s|     1 |     0 |  2558 |     - |   197M |   0 |  16k| 361 | 642 | 283 | 12 |   2 |   0 | 9.880982e+05 | 1.855931e+06 |  87.83%| unknown
  6.6s|     1 |     0 |  2688 |     - |   197M |   0 |  16k| 361 | 655 | 296 | 13 |   2 |   0 | 9.884392e+05 | 1.855931e+06 |  87.76%| unknown
 time | node  | left  |LP iter|LP it/n|mem/heur|mdpt |vars |cons |rows |cuts |sepa|confs|strbr|  dualbound   | primalbound  |  gap   | compl. 
  6.9s|     1 |     0 |  2860 |     - |   199M |   0 |  16k| 361 | 672 | 313 | 14 |   2 |   0 | 9.887523e+05 | 1.855931e+06 |  87.70%| unknown
  7.4s|     1 |     0 |  3019 |     - |   199M |   0 |  16k| 361 | 686 | 327 | 15 |   2 |   0 | 9.889210e+05 | 1.855931e+06 |  87.67%| unknown
  7.6s|     1 |     0 |  3076 |     - |   199M |   0 |  16k| 361 | 693 | 334 | 16 |   2 |   0 | 9.890655e+05 | 1.855931e+06 |  87.64%| unknown
  7.9s|     1 |     0 |  3282 |     - |   199M |   0 |  16k| 361 | 682 | 346 | 17 |   2 |   0 | 9.894741e+05 | 1.855931e+06 |  87.57%| unknown
  8.2s|     1 |     0 |  3433 |     - |   200M |   0 |  16k| 361 | 693 | 357 | 18 |   2 |   0 | 9.898177e+05 | 1.855931e+06 |  87.50%| unknown
  8.4s|     1 |     0 |  3541 |     - |   200M |   0 |  16k| 361 | 703 | 367 | 19 |   2 |   0 | 9.899284e+05 | 1.855931e+06 |  87.48%| unknown
  8.9s|     1 |     0 |  3578 |     - |   200M |   0 |  16k| 361 | 709 | 373 | 20 |   2 |   0 | 9.899699e+05 | 1.855931e+06 |  87.47%| unknown
  9.2s|     1 |     0 |  3623 |     - |   200M |   0 |  16k| 361 | 715 | 379 | 21 |   2 |   0 | 9.900100e+05 | 1.855931e+06 |  87.47%| unknown
  9.5s|     1 |     0 |  3769 |     - |   200M |   0 |  16k| 361 | 727 | 391 | 22 |   2 |   0 | 9.903591e+05 | 1.855931e+06 |  87.40%| unknown
  9.8s|     1 |     0 |  3852 |     - |   200M |   0 |  16k| 361 | 697 | 401 | 23 |   2 |   0 | 9.904488e+05 | 1.855931e+06 |  87.38%| unknown
 10.0s|     1 |     0 |  3888 |     - |   200M |   0 |  16k| 361 | 703 | 407 | 24 |   2 |   0 | 9.904690e+05 | 1.855931e+06 |  87.38%| unknown
 10.2s|     1 |     0 |  3918 |     - |   201M |   0 |  16k| 361 | 709 | 413 | 25 |   2 |   0 | 9.904961e+05 | 1.855931e+06 |  87.37%| unknown
 10.4s|     1 |     0 |  3941 |     - |   201M |   0 |  16k| 361 | 714 | 418 | 26 |   2 |   0 | 9.905024e+05 | 1.855931e+06 |  87.37%| unknown
 10.7s|     1 |     0 |  4058 |     - |   201M |   0 |  16k| 361 | 720 | 424 | 27 |   2 |   0 | 9.906015e+05 | 1.855931e+06 |  87.35%| unknown
 10.9s|     1 |     0 |  4122 |     - |   201M |   0 |  16k| 361 | 727 | 431 | 28 |   2 |   0 | 9.906366e+05 | 1.855931e+06 |  87.35%| unknown
 time | node  | left  |LP iter|LP it/n|mem/heur|mdpt |vars |cons |rows |cuts |sepa|confs|strbr|  dualbound   | primalbound  |  gap   | compl. 
 11.2s|     1 |     0 |  4164 |     - |   201M |   0 |  16k| 361 | 702 | 436 | 29 |   2 |   0 | 9.906737e+05 | 1.855931e+06 |  87.34%| unknown
 11.4s|     1 |     0 |  4187 |     - |   201M |   0 |  16k| 361 | 707 | 441 | 30 |   2 |   0 | 9.907027e+05 | 1.855931e+06 |  87.33%| unknown
 11.6s|     1 |     0 |  4236 |     - |   201M |   0 |  16k| 361 | 713 | 447 | 31 |   2 |   0 | 9.907573e+05 | 1.855931e+06 |  87.32%| unknown
 11.8s|     1 |     0 |  4284 |     - |   201M |   0 |  16k| 361 | 716 | 450 | 32 |   2 |   0 | 9.908122e+05 | 1.855931e+06 |  87.31%| unknown
 12.1s|     1 |     0 |  4330 |     - |   201M |   0 |  16k| 361 | 719 | 453 | 33 |   2 |   0 | 9.908358e+05 | 1.855931e+06 |  87.31%| unknown
 12.3s|     1 |     0 |  4365 |     - |   202M |   0 |  16k| 361 | 722 | 456 | 34 |   2 |   0 | 9.908427e+05 | 1.855931e+06 |  87.31%| unknown
 12.5s|     1 |     0 |  4418 |     - |   202M |   0 |  16k| 361 | 705 | 463 | 35 |   2 |   0 | 9.908803e+05 | 1.855931e+06 |  87.30%| unknown
 12.8s|     1 |     0 |  4499 |     - |   202M |   0 |  16k| 361 | 715 | 473 | 36 |   2 |   0 | 9.909368e+05 | 1.855931e+06 |  87.29%| unknown
 12.9s|     1 |     0 |  4521 |     - |   202M |   0 |  16k| 361 | 718 | 476 | 37 |   2 |   0 | 9.909401e+05 | 1.855931e+06 |  87.29%| unknown
o19.9s|     1 |     0 | 10500 |     - |feaspump|   0 |  16k| 361 | 718 | 476 | 37 |   2 |   0 | 9.909401e+05 | 1.004091e+06 |   1.33%| unknown
L21.2s|     1 |     0 | 11582 |     - |    rens|   0 |  16k| 372 | 718 | 476 | 37 |8112 |   0 | 9.909401e+05 | 9.929109e+05 |   0.20%| unknown
(run 1, node 1) restarting after 8099 global fixings of integer variables

(restart) converted 140 cuts from the global cut pool into linear constraints

presolving:
(round 1, fast)       8099 del vars, 2 del conss, 1 add conss, 0 chg bounds, 0 chg sides, 248 chg coeffs, 0 upgd conss, 0 impls, 737 clqs
   (21.5s) running MILP presolver
   (21.5s) MILP presolver found nothing
(round 2, exhaustive) 8099 del vars, 2 del conss, 1 add conss, 0 chg bounds, 0 chg sides, 248 chg coeffs, 138 upgd conss, 0 impls, 737 clqs
(round 3, medium)     8099 del vars, 3 del conss, 2 add conss, 0 chg bounds, 1 chg sides, 271 chg coeffs, 138 upgd conss, 0 impls, 951 clqs
presolving (4 rounds: 4 fast, 3 medium, 2 exhaustive):
 8099 deleted vars, 3 deleted constraints, 2 added constraints, 0 tightened bounds, 0 added holes, 1 changed sides, 271 changed coefficients
 0 implications, 951 cliques
presolved problem has 8766 variables (8766 bin, 0 int, 0 impl, 0 cont) and 511 constraints
    188 constraints of type <knapsack>
    307 constraints of type <setppc>
      2 constraints of type <linear>
     14 constraints of type <logicor>
Presolving Time: 1.04
transformed 2/3 original solutions to the transformed problem space

 time | node  | left  |LP iter|LP it/n|mem/heur|mdpt |vars |cons |rows |cuts |sepa|confs|strbr|  dualbound   | primalbound  |  gap   | compl. 
 22.2s|     1 |     0 | 13568 |     - |   207M |   0 |8766 | 511 | 499 |   0 |  0 |8112 |   0 | 9.909401e+05 | 9.929109e+05 |   0.20%| unknown
 22.3s|     1 |     0 | 13568 |     - |   207M |   0 |8766 | 511 | 499 |   0 |  0 |8112 |   0 | 9.909401e+05 | 9.929109e+05 |   0.20%| unknown
 22.6s|     1 |     0 | 13948 |     - |   208M |   0 |8766 | 511 | 532 |  33 |  1 |8112 |   0 | 9.909401e+05 | 9.929109e+05 |   0.20%| unknown
 22.6s|     1 |     0 | 13948 |     - |   208M |   0 |8766 | 511 | 532 |  33 |  1 |8112 |   0 | 9.909401e+05 | 9.929109e+05 |   0.20%| unknown
 22.9s|     1 |     0 | 14333 |     - |   208M |   0 |8766 | 511 | 564 |  65 |  2 |8112 |   0 | 9.909401e+05 | 9.929109e+05 |   0.20%| unknown
 22.9s|     1 |     0 | 14333 |     - |   208M |   0 |8766 | 511 | 564 |  65 |  2 |8112 |   0 | 9.909401e+05 | 9.929109e+05 |   0.20%| unknown
 23.1s|     1 |     0 | 14618 |     - |   208M |   0 |8766 | 511 | 589 |  90 |  3 |8112 |   0 | 9.909401e+05 | 9.929109e+05 |   0.20%| unknown
 23.1s|     1 |     0 | 14618 |     - |   208M |   0 |8766 | 511 | 588 |  90 |  3 |8112 |   0 | 9.909401e+05 | 9.929109e+05 |   0.20%| unknown
 23.3s|     1 |     0 | 14835 |     - |   209M |   0 |8766 | 511 | 606 | 108 |  4 |8112 |   0 | 9.909401e+05 | 9.929109e+05 |   0.20%| unknown
 23.3s|     1 |     0 | 14835 |     - |   209M |   0 |8766 | 511 | 604 | 108 |  4 |8112 |   0 | 9.909401e+05 | 9.929109e+05 |   0.20%| unknown
 23.5s|     1 |     0 | 15066 |     - |   209M |   0 |8766 | 510 | 618 | 122 |  5 |8112 |   0 | 9.909401e+05 | 9.929109e+05 |   0.20%| unknown
 23.5s|     1 |     0 | 15066 |     - |   209M |   0 |8766 | 510 | 617 | 122 |  5 |8112 |   0 | 9.909401e+05 | 9.929109e+05 |   0.20%| unknown
 23.8s|     1 |     0 | 15266 |     - |   209M |   0 |8766 | 510 | 629 | 134 |  6 |8112 |   0 | 9.909401e+05 | 9.929109e+05 |   0.20%| unknown
 23.8s|     1 |     0 | 15266 |     - |   209M |   0 |8766 | 511 | 629 | 134 |  6 |8113 |   0 | 9.909401e+05 | 9.929109e+05 |   0.20%| unknown
 24.0s|     1 |     0 | 15335 |     - |   209M |   0 |8766 | 511 | 642 | 147 |  7 |8113 |   0 | 9.910596e+05 | 9.929109e+05 |   0.19%| unknown
 time | node  | left  |LP iter|LP it/n|mem/heur|mdpt |vars |cons |rows |cuts |sepa|confs|strbr|  dualbound   | primalbound  |  gap   | compl. 
 24.0s|     1 |     0 | 15335 |     - |   209M |   0 |8766 | 512 | 642 | 147 |  7 |8114 |   0 | 9.910596e+05 | 9.929109e+05 |   0.19%| unknown
 24.3s|     1 |     0 | 15392 |     - |   209M |   0 |8766 | 512 | 651 | 156 |  8 |8114 |   0 | 9.911831e+05 | 9.929109e+05 |   0.17%| unknown
 24.3s|     1 |     0 | 15392 |     - |   209M |   0 |8766 | 513 | 651 | 156 |  8 |8115 |   0 | 9.911831e+05 | 9.929109e+05 |   0.17%| unknown
 24.5s|     1 |     0 | 15405 |     - |   209M |   0 |8766 | 513 | 655 | 161 |  9 |8115 |   0 | 9.911961e+05 | 9.929109e+05 |   0.17%| unknown
 24.6s|     1 |     0 | 15405 |     - |   209M |   0 |8766 | 513 | 655 | 161 |  9 |8115 |   0 | 9.911961e+05 | 9.929109e+05 |   0.17%| unknown
 24.8s|     1 |     0 | 15448 |     - |   209M |   0 |8766 | 513 | 638 | 166 | 10 |8115 |   0 | 9.912386e+05 | 9.929109e+05 |   0.17%| unknown
 24.8s|     1 |     0 | 15448 |     - |   209M |   0 |8766 | 513 | 638 | 166 | 10 |8115 |   0 | 9.912386e+05 | 9.929109e+05 |   0.17%| unknown
 24.9s|     1 |     0 | 15477 |     - |   209M |   0 |8766 | 513 | 645 | 173 | 11 |8115 |   0 | 9.912945e+05 | 9.929109e+05 |   0.16%| unknown
 24.9s|     1 |     0 | 15477 |     - |   209M |   0 |8766 | 513 | 645 | 173 | 11 |8115 |   0 | 9.912945e+05 | 9.929109e+05 |   0.16%| unknown
 25.0s|     1 |     0 | 15528 |     - |   209M |   0 |8766 | 513 | 653 | 181 | 12 |8115 |   0 | 9.913109e+05 | 9.929109e+05 |   0.16%| unknown
 25.0s|     1 |     0 | 15528 |     - |   209M |   0 |8766 | 513 | 653 | 181 | 12 |8115 |   0 | 9.913109e+05 | 9.929109e+05 |   0.16%| unknown
 25.1s|     1 |     0 | 15546 |     - |   209M |   0 |8766 | 513 | 661 | 189 | 13 |8115 |   0 | 9.913156e+05 | 9.929109e+05 |   0.16%| unknown
 25.3s|     1 |     0 | 15596 |     - |   209M |   0 |8766 | 513 | 666 | 194 | 14 |8115 |   0 | 9.913668e+05 | 9.929109e+05 |   0.16%| unknown
 25.3s|     1 |     0 | 15596 |     - |   209M |   0 |8766 | 513 | 666 | 194 | 14 |8115 |   0 | 9.913668e+05 | 9.929109e+05 |   0.16%| unknown
 25.4s|     1 |     0 | 15604 |     - |   209M |   0 |8766 | 513 | 669 | 197 | 15 |8115 |   0 | 9.913753e+05 | 9.929109e+05 |   0.15%| unknown
 time | node  | left  |LP iter|LP it/n|mem/heur|mdpt |vars |cons |rows |cuts |sepa|confs|strbr|  dualbound   | primalbound  |  gap   | compl. 
 25.4s|     1 |     0 | 15604 |     - |   209M |   0 |8766 | 513 | 669 | 197 | 15 |8115 |   0 | 9.913753e+05 | 9.929109e+05 |   0.15%| unknown
 25.5s|     1 |     0 | 15634 |     - |   209M |   0 |8766 | 513 | 605 | 200 | 16 |8115 |   0 | 9.913873e+05 | 9.929109e+05 |   0.15%| unknown
 25.5s|     1 |     0 | 15634 |     - |   209M |   0 |8766 | 513 | 605 | 200 | 16 |8115 |   0 | 9.913873e+05 | 9.929109e+05 |   0.15%| unknown
 25.6s|     1 |     0 | 15643 |     - |   209M |   0 |8766 | 513 | 610 | 205 | 17 |8115 |   0 | 9.913882e+05 | 9.929109e+05 |   0.15%| unknown
 25.6s|     1 |     0 | 15643 |     - |   209M |   0 |8766 | 513 | 610 | 205 | 17 |8115 |   0 | 9.913882e+05 | 9.929109e+05 |   0.15%| unknown
 25.7s|     1 |     0 | 15654 |     - |   209M |   0 |8766 | 513 | 611 | 206 | 18 |8115 |   0 | 9.913888e+05 | 9.929109e+05 |   0.15%| unknown
 25.8s|     1 |     0 | 15661 |     - |   209M |   0 |8766 | 513 | 613 | 208 | 19 |8115 |   0 | 9.913897e+05 | 9.929109e+05 |   0.15%| unknown
(run 2, node 1) restarting after 8000 global fixings of integer variables

(restart) converted 99 cuts from the global cut pool into linear constraints

presolving:
(round 1, fast)       8060 del vars, 60 del conss, 4 add conss, 0 chg bounds, 72 chg sides, 1322 chg coeffs, 0 upgd conss, 0 impls, 427 clqs
(round 2, fast)       8064 del vars, 66 del conss, 7 add conss, 0 chg bounds, 75 chg sides, 1348 chg coeffs, 0 upgd conss, 0 impls, 425 clqs
   (26.4s) running MILP presolver
   (26.4s) MILP presolver (3 rounds): 27 aggregations, 0 fixings, 0 bound changes
(round 3, medium)     8104 del vars, 98 del conss, 17 add conss, 0 chg bounds, 94 chg sides, 1395 chg coeffs, 0 upgd conss, 0 impls, 420 clqs
(round 4, exhaustive) 8104 del vars, 100 del conss, 17 add conss, 0 chg bounds, 94 chg sides, 1397 chg coeffs, 0 upgd conss, 0 impls, 420 clqs
(round 5, exhaustive) 8104 del vars, 104 del conss, 17 add conss, 0 chg bounds, 95 chg sides, 1397 chg coeffs, 0 upgd conss, 0 impls, 420 clqs
(round 6, exhaustive) 8104 del vars, 104 del conss, 17 add conss, 0 chg bounds, 95 chg sides, 1397 chg coeffs, 92 upgd conss, 0 impls, 420 clqs
(round 7, fast)       8104 del vars, 105 del conss, 17 add conss, 0 chg bounds, 95 chg sides, 1401 chg coeffs, 92 upgd conss, 0 impls, 421 clqs
(round 8, medium)     8104 del vars, 107 del conss, 19 add conss, 0 chg bounds, 96 chg sides, 1410 chg coeffs, 92 upgd conss, 0 impls, 421 clqs
(round 9, exhaustive) 8104 del vars, 110 del conss, 19 add conss, 0 chg bounds, 96 chg sides, 1412 chg coeffs, 92 upgd conss, 0 impls, 421 clqs
(round 10, exhaustive) 8104 del vars, 110 del conss, 19 add conss, 0 chg bounds, 96 chg sides, 1418 chg coeffs, 92 upgd conss, 0 impls, 433 clqs
presolving (11 rounds: 11 fast, 8 medium, 6 exhaustive):
 8104 deleted vars, 110 deleted constraints, 19 added constraints, 0 tightened bounds, 0 added holes, 96 changed sides, 1420 changed coefficients
 0 implications, 437 cliques
presolved problem has 662 variables (662 bin, 0 int, 0 impl, 0 cont) and 442 constraints
    250 constraints of type <knapsack>
    159 constraints of type <setppc>
      5 constraints of type <linear>
     28 constraints of type <logicor>
Presolving Time: 1.12
transformed 3/6 original solutions to the transformed problem space

 time | node  | left  |LP iter|LP it/n|mem/heur|mdpt |vars |cons |rows |cuts |sepa|confs|strbr|  dualbound   | primalbound  |  gap   | compl. 
 26.5s|     1 |     0 | 17006 |     - |   211M |   0 | 662 | 442 | 429 |   0 |  0 |8116 |   0 | 9.913897e+05 | 9.929109e+05 |   0.15%| unknown
 26.5s|     1 |     0 | 17006 |     - |   211M |   0 | 662 | 442 | 429 |   0 |  0 |8116 |   0 | 9.913897e+05 | 9.929109e+05 |   0.15%| unknown
 26.7s|     1 |     0 | 17236 |     - |   211M |   0 | 662 | 442 | 442 |  13 |  1 |8116 |   0 | 9.913897e+05 | 9.929109e+05 |   0.15%| unknown
 26.7s|     1 |     0 | 17236 |     - |   211M |   0 | 662 | 442 | 442 |  13 |  1 |8116 |   0 | 9.913897e+05 | 9.929109e+05 |   0.15%| unknown
 26.9s|     1 |     0 | 17424 |     - |   215M |   0 | 662 | 442 | 449 |  20 |  2 |8116 |   0 | 9.913897e+05 | 9.929109e+05 |   0.15%| unknown
 26.9s|     1 |     0 | 17424 |     - |   215M |   0 | 662 | 442 | 449 |  20 |  2 |8116 |   0 | 9.913897e+05 | 9.929109e+05 |   0.15%| unknown
 27.1s|     1 |     0 | 17498 |     - |   218M |   0 | 662 | 442 | 459 |  30 |  3 |8116 |   0 | 9.913897e+05 | 9.929109e+05 |   0.15%| unknown
 27.1s|     1 |     0 | 17498 |     - |   218M |   0 | 662 | 442 | 459 |  30 |  3 |8116 |   0 | 9.913897e+05 | 9.929109e+05 |   0.15%| unknown
 27.2s|     1 |     0 | 17542 |     - |   221M |   0 | 662 | 442 | 465 |  36 |  4 |8116 |   0 | 9.913897e+05 | 9.929109e+05 |   0.15%| unknown
 27.2s|     1 |     0 | 17542 |     - |   221M |   0 | 662 | 442 | 465 |  36 |  4 |8116 |   0 | 9.913897e+05 | 9.929109e+05 |   0.15%| unknown
 27.3s|     1 |     0 | 17598 |     - |   225M |   0 | 662 | 442 | 467 |  38 |  5 |8116 |   0 | 9.914036e+05 | 9.929109e+05 |   0.15%| unknown
 27.4s|     1 |     0 | 17663 |     - |   227M |   0 | 662 | 442 | 472 |  43 |  6 |8116 |   0 | 9.914399e+05 | 9.929109e+05 |   0.15%| unknown
 27.4s|     1 |     0 | 17663 |     - |   227M |   0 | 662 | 442 | 472 |  43 |  6 |8116 |   0 | 9.914399e+05 | 9.929109e+05 |   0.15%| unknown
 27.6s|     1 |     0 | 17695 |     - |   229M |   0 | 662 | 442 | 476 |  47 |  7 |8116 |   0 | 9.914525e+05 | 9.929109e+05 |   0.15%| unknown
 27.6s|     1 |     0 | 17695 |     - |   229M |   0 | 662 | 447 | 476 |  47 |  7 |8121 |   0 | 9.914525e+05 | 9.929109e+05 |   0.15%| unknown
 time | node  | left  |LP iter|LP it/n|mem/heur|mdpt |vars |cons |rows |cuts |sepa|confs|strbr|  dualbound   | primalbound  |  gap   | compl. 
 27.8s|     1 |     0 | 17741 |     - |   233M |   0 | 662 | 447 | 480 |  51 |  8 |8121 |   0 | 9.914621e+05 | 9.929109e+05 |   0.15%| unknown
 28.0s|     1 |     0 | 17782 |     - |   236M |   0 | 662 | 447 | 485 |  56 |  9 |8121 |   0 | 9.914676e+05 | 9.929109e+05 |   0.15%| unknown
 28.0s|     1 |     0 | 17782 |     - |   236M |   0 | 662 | 447 | 485 |  56 |  9 |8121 |   0 | 9.914676e+05 | 9.929109e+05 |   0.15%| unknown
 28.2s|     1 |     0 | 17867 |     - |   239M |   0 | 662 | 447 | 489 |  60 | 10 |8121 |   0 | 9.914777e+05 | 9.929109e+05 |   0.14%| unknown
 28.2s|     1 |     0 | 17867 |     - |   239M |   0 | 662 | 447 | 489 |  60 | 10 |8121 |   0 | 9.914777e+05 | 9.929109e+05 |   0.14%| unknown
 28.2s|     1 |     0 | 17905 |     - |   239M |   0 | 662 | 447 | 497 |  68 | 11 |8121 |   0 | 9.914822e+05 | 9.929109e+05 |   0.14%| unknown
 28.2s|     1 |     0 | 17905 |     - |   239M |   0 | 662 | 447 | 497 |  68 | 11 |8121 |   0 | 9.914822e+05 | 9.929109e+05 |   0.14%| unknown
 28.3s|     1 |     0 | 17926 |     - |   239M |   0 | 662 | 447 | 500 |  71 | 12 |8121 |   0 | 9.914865e+05 | 9.929109e+05 |   0.14%| unknown
 28.3s|     1 |     0 | 17926 |     - |   239M |   0 | 662 | 447 | 500 |  71 | 12 |8121 |   0 | 9.914865e+05 | 9.929109e+05 |   0.14%| unknown
 28.4s|     1 |     0 | 17935 |     - |   239M |   0 | 662 | 447 | 503 |  74 | 13 |8121 |   0 | 9.914892e+05 | 9.929109e+05 |   0.14%| unknown
 28.5s|     1 |     0 | 17961 |     - |   239M |   0 | 662 | 448 | 420 |  76 | 14 |8122 |   0 | 9.914916e+05 | 9.929109e+05 |   0.14%| unknown
 28.5s|     1 |     0 | 17995 |     - |   239M |   0 | 662 | 448 | 422 |  78 | 15 |8122 |   0 | 9.914940e+05 | 9.929109e+05 |   0.14%| unknown
 28.5s|     1 |     0 | 17995 |     - |   239M |   0 | 662 | 448 | 422 |  78 | 15 |8122 |   0 | 9.914940e+05 | 9.929109e+05 |   0.14%| unknown
 29.9s|     1 |     2 | 18125 |     - |   239M |   0 | 662 | 447 | 422 |  78 | 15 |8122 |  48 | 9.915683e+05 | 9.929109e+05 |   0.14%| unknown
(run 3, node 1) restarting after 48 global fixings of integer variables

(restart) converted 45 cuts from the global cut pool into linear constraints

presolving:
(round 1, fast)       57 del vars, 12 del conss, 2 add conss, 0 chg bounds, 13 chg sides, 110 chg coeffs, 0 upgd conss, 0 impls, 384 clqs
(round 2, medium)     61 del vars, 18 del conss, 2 add conss, 0 chg bounds, 13 chg sides, 110 chg coeffs, 0 upgd conss, 0 impls, 381 clqs
(round 3, exhaustive) 61 del vars, 18 del conss, 2 add conss, 0 chg bounds, 13 chg sides, 113 chg coeffs, 0 upgd conss, 0 impls, 381 clqs
(round 4, exhaustive) 61 del vars, 19 del conss, 2 add conss, 0 chg bounds, 14 chg sides, 114 chg coeffs, 0 upgd conss, 0 impls, 381 clqs
(round 5, exhaustive) 61 del vars, 19 del conss, 2 add conss, 0 chg bounds, 14 chg sides, 115 chg coeffs, 35 upgd conss, 0 impls, 381 clqs
presolving (6 rounds: 6 fast, 5 medium, 4 exhaustive):
 61 deleted vars, 19 deleted constraints, 2 added constraints, 0 tightened bounds, 0 added holes, 14 changed sides, 116 changed coefficients
 0 implications, 381 cliques
presolved problem has 601 variables (601 bin, 0 int, 0 impl, 0 cont) and 475 constraints
    281 constraints of type <knapsack>
    145 constraints of type <setppc>
     14 constraints of type <linear>
     35 constraints of type <logicor>
Presolving Time: 1.19
transformed 5/11 original solutions to the transformed problem space

 time | node  | left  |LP iter|LP it/n|mem/heur|mdpt |vars |cons |rows |cuts |sepa|confs|strbr|  dualbound   | primalbound  |  gap   | compl. 
 30.1s|     1 |     0 | 20212 |     - |   227M |   0 | 601 | 475 | 456 |   0 |  0 |8122 |  48 | 9.915683e+05 | 9.929109e+05 |   0.14%| unknown
 30.2s|     1 |     0 | 20212 |     - |   227M |   0 | 601 | 475 | 456 |   0 |  0 |8122 |  48 | 9.915683e+05 | 9.929109e+05 |   0.14%| unknown
 30.3s|     1 |     0 | 20378 |     - |   227M |   0 | 601 | 475 | 465 |   9 |  1 |8122 |  48 | 9.915683e+05 | 9.929109e+05 |   0.14%| unknown
 30.5s|     1 |     0 | 20552 |     - |   228M |   0 | 601 | 476 | 474 |  18 |  2 |8123 |  48 | 9.915683e+05 | 9.929109e+05 |   0.14%| unknown
 30.5s|     1 |     0 | 20552 |     - |   228M |   0 | 601 | 476 | 474 |  18 |  2 |8123 |  48 | 9.915683e+05 | 9.929109e+05 |   0.14%| unknown
 30.7s|     1 |     0 | 20691 |     - |   231M |   0 | 601 | 476 | 483 |  27 |  3 |8123 |  48 | 9.915683e+05 | 9.929109e+05 |   0.14%| unknown
 30.7s|     1 |     0 | 20691 |     - |   231M |   0 | 601 | 476 | 483 |  27 |  3 |8123 |  48 | 9.915683e+05 | 9.929109e+05 |   0.14%| unknown
 30.9s|     1 |     0 | 20759 |     - |   233M |   0 | 601 | 476 | 487 |  31 |  4 |8123 |  48 | 9.915683e+05 | 9.929109e+05 |   0.14%| unknown
 31.1s|     1 |     0 | 20809 |     - |   236M |   0 | 601 | 476 | 490 |  34 |  5 |8123 |  48 | 9.915683e+05 | 9.929109e+05 |   0.14%| unknown
 31.1s|     1 |     0 | 20809 |     - |   236M |   0 | 601 | 479 | 490 |  34 |  5 |8126 |  48 | 9.915683e+05 | 9.929109e+05 |   0.14%| unknown
 31.3s|     1 |     0 | 20840 |     - |   239M |   0 | 601 | 479 | 493 |  37 |  6 |8126 |  48 | 9.915683e+05 | 9.929109e+05 |   0.14%| unknown
 31.6s|     1 |     0 | 20884 |     - |   241M |   0 | 601 | 481 | 498 |  42 |  7 |8128 |  48 | 9.915683e+05 | 9.929109e+05 |   0.14%| unknown
 31.8s|     1 |     0 | 20906 |     - |   244M |   0 | 601 | 481 | 500 |  44 |  8 |8128 |  48 | 9.915683e+05 | 9.929109e+05 |   0.14%| unknown
 32.0s|     1 |     0 | 20921 |     - |   247M |   0 | 601 | 481 | 502 |  46 |  9 |8128 |  48 | 9.915683e+05 | 9.929109e+05 |   0.14%| unknown
 32.2s|     1 |     0 | 20945 |     - |   249M |   0 | 601 | 481 | 505 |  49 | 10 |8128 |  48 | 9.915683e+05 | 9.929109e+05 |   0.14%| unknown
 time | node  | left  |LP iter|LP it/n|mem/heur|mdpt |vars |cons |rows |cuts |sepa|confs|strbr|  dualbound   | primalbound  |  gap   | compl. 
 32.3s|     1 |     0 | 21012 |     - |   249M |   0 | 601 | 481 | 506 |  50 | 11 |8128 |  48 | 9.915683e+05 | 9.929109e+05 |   0.14%| unknown
 32.4s|     1 |     0 | 21037 |     - |   249M |   0 | 601 | 481 | 507 |  51 | 12 |8128 |  48 | 9.915683e+05 | 9.929109e+05 |   0.14%| unknown
 32.5s|     1 |     0 | 21050 |     - |   249M |   0 | 601 | 481 | 394 |  54 | 13 |8128 |  48 | 9.915683e+05 | 9.929109e+05 |   0.14%| unknown
L33.0s|     1 |     0 | 22269 |     - |    rens|   0 | 601 | 476 | 394 |  54 | 13 |8132 |  48 | 9.915683e+05 | 9.919569e+05 |   0.04%| unknown
 33.0s|     1 |     0 | 22269 |     - |   249M |   0 | 601 | 476 | 394 |  54 | 13 |8132 |  48 | 9.915683e+05 | 9.919569e+05 |   0.04%| unknown
 33.0s|     1 |     0 | 22269 |     - |   249M |   0 | 601 | 476 | 383 |  54 | 13 |8132 |  48 | 9.915683e+05 | 9.919569e+05 |   0.04%| unknown
 33.1s|     1 |     0 | 22293 |     - |   249M |   0 | 601 | 461 | 382 |  55 | 14 |8132 |  48 | 9.915683e+05 | 9.919569e+05 |   0.04%| unknown
 33.1s|     1 |     0 | 22324 |     - |   249M |   0 | 601 | 461 | 372 |  57 | 15 |8132 |  48 | 9.915683e+05 | 9.919569e+05 |   0.04%| unknown
 33.6s|     1 |     2 | 22324 |     - |   249M |   0 | 601 | 443 | 372 |  57 | 15 |8140 |  68 | 9.915783e+05 | 9.919569e+05 |   0.04%| unknown
*35.1s|    10 |     5 | 22934 | 751.7 |strongbr|   6 | 601 | 489 | 321 |  57 |  4 |8186 | 236 | 9.916172e+05 | 9.919092e+05 |   0.03%|  12.71%

SCIP Status        : problem is solved [optimal solution found]
Solving Time (sec) : 37.71
Solving Nodes      : 37 (total of 40 nodes in 4 runs)
Primal Bound       : +9.91909238427265e+05 (19 solutions)
Dual Bound         : +9.91909238427265e+05
Gap                : 0.00 %
Solve Status: optimal
Solve Time: 37.72 seconds
Objective Value: 991909.24
